data;


param d:= 100;
param r:=5;
param p:=0.760000;
param M:=1000;
param U:=
         1         1        9.880427e-01
         2         1        1.860789e+00
         3         1        7.758852e-01
         4         1        5.118192e-01
         5         1        1.160408e+00
         6         1       -5.717623e-01
         7         1       -1.311488e+00
         8         1        1.388814e-01
         9         1        2.062613e-01
        10         1        1.501675e+00
        11         1       -9.433454e-01
        12         1       -5.594241e-01
        13         1        1.975170e-01
        14         1        6.556203e-01
        15         1       -6.048230e-01
        16         1       -9.310747e-01
        17         1        5.866435e-01
        18         1       -2.167488e+00
        19         1       -1.077378e+00
        20         1        4.299854e-01
        21         1       -2.786593e-01
        22         1       -7.540377e-01
        23         1       -1.231685e+00
        24         1       -1.140177e+00
        25         1        5.615254e-01
        26         1       -1.048706e+00
        27         1       -1.748155e+00
        28         1        5.260613e-01
        29         1       -3.806453e-01
        30         1        1.395547e+00
        31         1        5.277778e-01
        32         1       -8.766108e-01
        33         1        1.684116e-02
        34         1        2.566238e+00
        35         1       -2.169226e+00
        36         1       -1.130713e-01
        37         1        5.685286e-01
        38         1        1.099696e+00
        39         1        2.246129e-01
        40         1       -1.536708e-01
        41         1        1.781921e-01
        42         1       -1.080963e+00
        43         1       -3.407258e-01
        44         1       -9.495684e-01
        45         1        4.303806e-01
        46         1        1.811920e+00
        47         1        8.407396e-02
        48         1       -8.535673e-02
        49         1       -1.752598e+00
        50         1        1.621219e-02
        51         1       -6.202279e-01
        52         1       -6.831692e-01
        53         1       -4.685358e-01
        54         1        1.670170e+00
        55         1       -1.745899e-02
        56         1       -4.399482e-02
        57         1        4.224079e-01
        58         1        1.311421e+00
        59         1       -5.290789e-02
        60         1       -5.663588e-01
        61         1        8.473951e-02
        62         1        1.191374e+00
        63         1       -5.562287e-01
        64         1        2.377307e-01
        65         1       -8.151788e-01
        66         1       -5.496554e-01
        67         1        1.720277e-01
        68         1        8.570373e-01
        69         1        6.698944e-01
        70         1       -9.768276e-01
        71         1       -2.875458e-01
        72         1       -2.141490e-01
        73         1        6.862261e-01
        74         1       -2.383971e+00
        75         1        1.402200e+00
        76         1        2.836326e-01
        77         1       -1.767467e+00
        78         1        4.277881e-01
        79         1       -7.275299e-01
        80         1       -1.332639e+00
        81         1       -1.215447e+00
        82         1       -1.786508e+00
        83         1        1.024363e+00
        84         1       -1.124141e-01
        85         1       -1.866916e+00
        86         1        9.335921e-01
        87         1       -1.316766e+00
        88         1       -7.647019e-02
        89         1        1.590753e+00
        90         1       -3.338211e-01
        91         1       -1.446523e+00
        92         1       -2.698341e+00
        93         1        6.671081e-01
        94         1       -4.392806e-01
        95         1        1.000089e+00
        96         1       -4.354083e-02
        97         1        1.879915e+00
        98         1        7.596383e-01
        99         1        1.373586e-01
       100         1       -1.217480e+00
         1         2        6.591987e-01
         2         2        9.950592e-02
         3         2        1.070361e+00
         4         2       -1.284404e+00
         5         2        1.509670e+00
         6         2        6.011017e-01
         7         2        4.640892e-01
         8         2       -8.572754e-02
         9         2       -7.452605e-01
        10         2        2.283895e-01
        11         2       -1.586208e-01
        12         2       -2.807417e-01
        13         2       -1.055393e+00
        14         2       -2.579882e+00
        15         2        1.381356e-01
        16         2        1.286046e+00
        17         2        1.217255e+00
        18         2        5.632163e-01
        19         2       -1.319846e+00
        20         2        7.751367e-01
        21         2        2.811804e-01
        22         2        4.558048e-01
        23         2       -1.707073e-02
        24         2        2.690936e+00
        25         2        1.587647e+00
        26         2       -8.325506e-01
        27         2        3.781142e-01
        28         2        5.866376e-02
        29         2       -4.927637e-01
        30         2       -6.964303e-01
        31         2        5.151247e-02
        32         2       -1.778040e+00
        33         2        1.167036e+00
        34         2        2.157127e+00
        35         2       -1.826333e+00
        36         2       -2.459972e-01
        37         2        2.419507e-01
        38         2        1.158058e+00
        39         2        4.444632e-01
        40         2        9.879549e-01
        41         2        5.357965e-03
        42         2        4.891519e-01
        43         2       -5.905495e-02
        44         2        3.746434e-01
        45         2       -5.432521e-02
        46         2        2.858111e+00
        47         2       -5.792025e-01
        48         2        2.833683e-01
        49         2        8.573821e-01
        50         2       -8.540470e-02
        51         2       -9.965539e-01
        52         2       -2.668879e-01
        53         2       -5.809786e-02
        54         2        1.394268e+00
        55         2        2.826585e-01
        56         2       -3.316604e-01
        57         2        9.421306e-01
        58         2       -1.165214e-01
        59         2       -8.598554e-02
        60         2        9.885885e-02
        61         2        1.745436e+00
        62         2        1.281276e+00
        63         2       -1.166526e+00
        64         2       -4.522404e-01
        65         2       -2.236653e-01
        66         2        5.736109e-01
        67         2        9.708234e-01
        68         2        1.058605e+00
        69         2       -1.527775e+00
        70         2       -3.764082e-01
        71         2        2.300357e-02
        72         2       -9.011137e-01
        73         2        1.481005e+00
        74         2        7.948802e-01
        75         2       -1.691804e-01
        76         2        7.255942e-01
        77         2        3.040952e-02
        78         2       -1.160213e+00
        79         2       -7.118153e-01
        80         2        1.212490e+00
        81         2        3.299732e-01
        82         2       -1.762238e-01
        83         2        2.904339e+00
        84         2       -1.706691e-01
        85         2        1.706796e-01
        86         2        3.038360e-02
        87         2        2.087837e-01
        88         2       -7.731330e-01
        89         2        3.026340e-01
        90         2       -4.732321e-01
        91         2       -6.090114e-01
        92         2        7.835641e-02
        93         2       -1.981587e+00
        94         2       -6.965071e-01
        95         2       -1.643627e+00
        96         2        1.554627e+00
        97         2        5.145904e-01
        98         2        2.579000e-01
        99         2        9.049343e-01
       100         2        6.518715e-01
         1         3        5.889998e-01
         2         3        1.509638e+00
         3         3        6.243099e-01
         4         3        8.426386e-01
         5         3        3.444239e-01
         6         3        1.082089e+00
         7         3       -1.417183e+00
         8         3        1.604432e+00
         9         3        1.401921e+00
        10         3        3.814716e-02
        11         3       -6.192669e-01
        12         3       -1.253729e+00
        13         3       -2.503152e-01
        14         3        4.168017e-01
        15         3        1.141919e+00
        16         3       -2.363960e+00
        17         3       -4.243561e-01
        18         3       -2.487603e-01
        19         3       -7.822417e-01
        20         3       -1.438847e-01
        21         3       -2.661372e-01
        22         3       -7.281507e-01
        23         3        2.241381e-01
        24         3       -1.330448e-01
        25         3        4.287413e-01
        26         3        4.530270e-01
        27         3        9.852702e-01
        28         3        1.937642e-01
        29         3       -1.216242e+00
        30         3        1.318078e+00
        31         3        7.942840e-02
        32         3       -9.659596e-02
        33         3        2.221812e-01
        34         3        8.805300e-01
        35         3        8.463383e-01
        36         3        5.001349e-01
        37         3       -1.042326e+00
        38         3       -2.388503e+00
        39         3        1.367847e+00
        40         3       -2.600895e-01
        41         3       -5.025394e-01
        42         3        1.009457e-01
        43         3       -4.438427e-01
        44         3        2.727694e-01
        45         3        1.926694e+00
        46         3        1.665105e-01
        47         3       -2.982885e-01
        48         3        1.343971e-01
        49         3       -5.701806e-01
        50         3       -4.498262e-01
        51         3        3.070861e-01
        52         3        6.590997e-01
        53         3       -2.716096e-01
        54         3       -1.389248e+00
        55         3       -1.691996e-01
        56         3       -2.384464e-01
        57         3        3.495691e-01
        58         3        3.199448e+00
        59         3        7.365177e-01
        60         3        4.104694e-01
        61         3        6.114620e-01
        62         3        2.369908e+00
        63         3        6.547944e-01
        64         3        2.751924e-01
        65         3        1.352460e+00
        66         3        7.791259e-02
        67         3       -4.605409e-01
        68         3        4.270833e-01
        69         3       -1.875118e+00
        70         3       -3.911278e-01
        71         3       -6.194783e-01
        72         3       -1.426853e+00
        73         3        9.559919e-01
        74         3       -1.947605e+00
        75         3       -1.050379e+00
        76         3        5.942163e-01
        77         3        5.556902e-01
        78         3       -1.090438e-01
        79         3       -5.527984e-01
        80         3       -2.830668e+00
        81         3        1.417319e+00
        82         3        1.539459e+00
        83         3        1.558986e+00
        84         3       -1.390497e+00
        85         3       -1.967733e-01
        86         3       -9.095699e-01
        87         3       -9.185371e-01
        88         3        4.783792e-01
        89         3       -3.223351e-01
        90         3       -1.468706e+00
        91         3        5.016270e-01
        92         3       -2.630666e+00
        93         3       -8.914064e-01
        94         3       -9.363916e-02
        95         3       -5.200141e-01
        96         3       -3.998745e-01
        97         3       -1.350197e+00
        98         3        3.261033e-01
        99         3        1.342948e+00
       100         3       -3.255246e-01
         1         4        1.515380e+00
         2         4       -1.364628e+00
         3         4       -9.464007e-01
         4         4        7.708752e-01
         5         4       -1.316630e+00
         6         4       -9.130938e-01
         7         4       -1.224841e+00
         8         4        8.938898e-01
         9         4       -1.364557e-02
        10         4       -4.100634e-01
        11         4        2.173937e-01
        12         4        5.972842e-01
        13         4       -1.423243e+00
        14         4        4.498514e-01
        15         4        2.218358e-01
        16         4        1.265018e+00
        17         4       -8.891109e-02
        18         4        2.045651e-01
        19         4        1.028174e+00
        20         4       -3.323593e-01
        21         4       -8.836391e-01
        22         4        5.020092e-01
        23         4       -2.482816e+00
        24         4        1.187012e+00
        25         4        2.218339e-01
        26         4        6.973675e-01
        27         4        5.814437e-01
        28         4        4.096966e-01
        29         4       -2.034041e-01
        30         4       -5.892959e-01
        31         4       -4.113048e-02
        32         4        1.746901e+00
        33         4        2.275487e+00
        34         4        3.207097e-01
        35         4       -5.634141e-01
        36         4        1.303320e+00
        37         4        1.717733e+00
        38         4       -1.406997e+00
        39         4       -3.004717e-01
        40         4       -1.619587e+00
        41         4        5.938224e-01
        42         4        1.378559e+00
        43         4        1.722007e-01
        44         4        4.615362e-01
        45         4        4.952896e-01
        46         4        7.511244e-01
        47         4       -4.349438e-01
        48         4        6.701949e-01
        49         4        5.662738e-01
        50         4        5.134595e-01
        51         4        1.094795e+00
        52         4       -9.967214e-01
        53         4       -1.120971e+00
        54         4        1.681964e+00
        55         4       -6.119256e-01
        56         4        7.632881e-01
        57         4        4.247453e-01
        58         4       -2.686699e-01
        59         4       -2.102150e-01
        60         4       -7.495447e-01
        61         4        1.413283e+00
        62         4       -5.578912e-01
        63         4       -1.392816e+00
        64         4       -9.691331e-01
        65         4        3.352644e-01
        66         4       -9.975819e-01
        67         4        1.042236e+00
        68         4       -6.280501e-01
        69         4        1.906046e+00
        70         4       -2.048077e+00
        71         4        5.854260e-01
        72         4        7.459246e-01
        73         4        3.215700e-01
        74         4        1.739837e-01
        75         4        1.202992e-01
        76         4       -2.235927e-01
        77         4       -8.896409e-01
        78         4       -5.697164e-01
        79         4       -3.928314e-01
        80         4       -1.222242e+00
        81         4       -1.138088e+00
        82         4       -2.220892e-01
        83         4       -1.383346e-01
        84         4        2.090224e-01
        85         4        5.663489e-01
        86         4       -3.453667e-01
        87         4       -7.412300e-01
        88         4       -6.359879e-01
        89         4       -3.505132e-01
        90         4        1.487038e+00
        91         4        1.113994e+00
        92         4        3.688096e-02
        93         4       -5.616828e-01
        94         4       -2.293055e+00
        95         4       -3.474786e-01
        96         4        3.944934e-01
        97         4        2.800604e-01
        98         4       -1.368124e+00
        99         4       -9.645646e-01
       100         4        4.797627e-01
         1         5       -2.815202e+00
         2         5        3.234318e-01
         3         5        2.476203e-01
         4         5        4.686787e-01
         5         5       -2.641465e-01
         6         5       -5.415125e-01
         7         5        4.774652e-01
         8         5       -2.231768e-01
         9         5        2.838754e-01
        10         5        2.054730e+00
        11         5        5.367470e-01
        12         5        6.554618e-01
        13         5        1.158288e-01
        14         5       -3.412393e-01
        15         5        1.185277e+00
        16         5       -1.453791e+00
        17         5       -1.098913e+00
        18         5       -2.726746e+00
        19         5        1.002240e+00
        20         5       -1.555899e+00
        21         5       -8.215588e-02
        22         5        4.717005e-02
        23         5        1.579906e-01
        24         5       -1.345318e+00
        25         5       -1.809207e+00
        26         5       -7.633149e-02
        27         5        1.991202e-01
        28         5       -1.766048e+00
        29         5        3.489749e-01
        30         5        5.807602e-01
        31         5       -1.152227e+00
        32         5       -3.969128e-01
        33         5       -3.895527e-01
        34         5        3.073814e-01
        35         5       -8.721299e-01
        36         5       -2.709059e+00
        37         5       -1.497316e+00
        38         5        2.497168e+00
        39         5       -1.972071e+00
        40         5       -1.297334e+00
        41         5       -5.173456e-02
        42         5        1.552600e+00
        43         5       -7.396363e-01
        44         5        5.155018e-02
        45         5        1.862242e+00
        46         5       -1.412817e-01
        47         5        5.974497e-01
        48         5       -8.344371e-01
        49         5       -6.804603e-01
        50         5       -1.587224e+00
        51         5        1.196525e+00
        52         5        6.865103e-02
        53         5       -5.857185e-01
        54         5        9.829139e-01
        55         5       -1.191962e+00
        56         5        1.343823e+00
        57         5        1.698620e-01
        58         5        6.797554e-01
        59         5        5.784717e-01
        60         5        1.194118e+00
        61         5        1.001306e+00
        62         5        4.788737e-01
        63         5        4.183481e-01
        64         5       -5.175006e-01
        65         5       -1.280547e+00
        66         5        4.477313e-01
        67         5        1.702748e+00
        68         5       -4.449428e-01
        69         5       -5.879559e-01
        70         5        1.072048e+00
        71         5        7.540012e-01
        72         5        4.218489e-01
        73         5        1.223289e+00
        74         5        4.949547e-01
        75         5        6.802328e-01
        76         5        1.003504e+00
        77         5       -2.830694e-01
        78         5        1.092820e+00
        79         5        1.978886e-01
        80         5        4.747311e-01
        81         5       -6.061966e-01
        82         5       -6.606705e-01
        83         5        2.001196e+00
        84         5       -1.469889e+00
        85         5        7.089903e-02
        86         5       -8.521016e-01
        87         5        8.933405e-01
        88         5       -7.356979e-01
        89         5       -3.726195e-01
        90         5       -2.285049e+00
        91         5       -6.355743e-01
        92         5       -1.594392e+00
        93         5       -4.881754e-01
        94         5        1.158950e+00
        95         5        8.078974e-01
        96         5       -4.973013e-01
        97         5        9.843377e-01
        98         5        9.859002e-01
        99         5       -1.789366e-01
       100         5        1.696474e+00
;

param theta:=
    1       -4.730785e-01
    2       -7.194596e-01
    3       -3.383518e-01
    4       -1.219983e+00
    5       -8.297568e-01
;
param X_true:=
    1       -6.537818e-01
    2       -6.622508e-02
    3       -3.992445e-01
    4       -9.325058e-01
    5        7.379588e-02
    6        1.035175e+00
    7        1.864154e+00
    8       -1.452234e+00
    9       -2.546355e-01
   10       -2.092290e+00
   11        5.934168e-02
   12       -3.817151e-01
   13        2.390788e+00
   14        1.139270e+00
   15       -1.453752e+00
   16       -2.194432e-02
   17        1.058761e-02
   18        2.717319e+00
   19       -3.620371e-01
   20        9.840772e-01
   21        1.165771e+00
   22       -3.764252e-01
   23        3.417027e+00
   24       -1.683457e+00
   25       -3.223901e-01
   26        1.543844e-01
   27       -6.529637e-01
   28        6.089329e-01
   29        9.047013e-01
   30       -3.680826e-01
   31        6.926304e-01
   32       -7.523051e-02
   33       -3.375599e+00
   34       -3.710239e+00
   35        3.464838e+00
   36        7.190876e-01
   37       -9.435548e-01
   38       -9.007952e-01
   39        1.114064e+00
   40        2.502246e+00
   41       -5.996445e-01
   42       -2.844798e+00
   43        7.574890e-01
   44       -5.184528e-01
   45       -2.965872e+00
   46       -3.768945e+00
   47        5.127517e-01
   48       -3.342114e-01
   49        2.789584e-01
   50        8.965734e-01
   51       -1.421962e+00
   52        1.451219e+00
   53        2.208921e+00
   54       -4.190733e+00
   55        1.597724e+00
   56       -1.706136e+00
   57       -1.655060e+00
   58       -1.855371e+00
   59       -3.858415e-01
   60       -1.847193e-02
   61       -4.057770e+00
   62       -2.004033e+00
   63        2.232941e+00
   64        1.731517e+00
   65        7.424804e-01
   66        6.665029e-01
   67       -3.308403e+00
   68       -1.761694e-01
   69       -4.207740e-01
   70        2.474344e+00
   71       -1.010764e+00
   72       -2.764460e-02
   73       -3.120966e+00
   74        5.919473e-01
   75       -8.974254e-01
   76       -1.417155e+00
   77        1.946478e+00
   78        4.575139e-01
   79        1.358390e+00
   80        1.813069e+00
   81        1.749490e+00
   82        1.270206e+00
   83       -4.593385e+00
   84        1.611094e+00
   85        7.721441e-02
   86        9.726110e-01
   87        9.465434e-01
   88        1.816898e+00
   89       -1.244178e-01
   90        1.077208e+00
   91        1.210707e-01
   92        3.388207e+00
   93        2.501996e+00
   94        2.576446e+00
   95        6.389097e-01
   96       -1.031230e+00
   97       -1.961162e+00
   98        1.957757e-01
   99        1.547923e-01
  100       -1.775853e+00
;
param X:=
    1        4.437082e-01
    2        4.544992e-01
    3       -1.579010e+00
    4       -9.325058e-01
    5       -1.036161e+00
    6        1.788519e-01
    7       -1.699822e-01
    8       -1.452234e+00
    9       -2.546355e-01
   10       -9.937514e-01
   11        5.934168e-02
   12        1.237402e+00
   13       -1.783222e+00
   14        1.139270e+00
   15       -2.159310e-01
   16       -1.230673e+00
   17        2.016872e-02
   18        2.717319e+00
   19        5.364459e-01
   20       -1.463827e-01
   21        1.985774e+00
   22       -3.764252e-01
   23       -8.415987e-01
   24       -3.826675e-02
   25       -2.281228e-02
   26       -1.077039e+00
   27       -6.529637e-01
   28        6.089329e-01
   29        9.047013e-01
   30       -6.340647e-01
   31        3.539165e-01
   32        6.018676e-01
   33       -3.375599e+00
   34       -1.657917e-01
   35        5.059763e-01
   36       -2.700412e-01
   37        2.572412e-01
   38       -9.007952e-01
   39        1.114064e+00
   40       -9.885841e-01
   41       -8.033010e-01
   42       -2.844798e+00
   43       -3.772925e-01
   44       -1.262911e-01
   45       -3.250698e-01
   46        2.246218e+00
   47        5.127517e-01
   48       -1.767940e+00
   49        5.545693e-01
   50       -6.787705e-01
   51       -8.610034e-01
   52        1.667760e-01
   53        4.563995e-01
   54       -1.448706e-01
   55        1.597724e+00
   56        1.983866e+00
   57       -3.288435e-01
   58       -5.394505e-01
   59       -3.858415e-01
   60       -1.291550e+00
   61       -2.038579e+00
   62       -1.843614e+00
   63        2.232941e+00
   64        1.731517e+00
   65       -1.619329e+00
   66       -7.614111e-01
   67       -4.406525e-01
   68       -3.164711e-01
   69       -9.263100e-01
   70       -1.199864e+00
   71        3.437373e-01
   72       -2.764460e-02
   73       -3.120966e+00
   74        5.919473e-01
   75        6.736290e-01
   76       -2.020031e-01
   77        2.760671e-01
   78        1.576199e-01
   79        7.416944e-01
   80       -5.305592e-01
   81        5.175393e-02
   82        1.319502e+00
   83       -1.532729e-01
   84        8.721292e-01
   85        4.687758e-01
   86        8.523624e-01
   87        5.002818e-01
   88       -1.275354e+00
   89       -1.244178e-01
   90       -1.311179e+00
   91       -1.461402e-01
   92        1.390706e+00
   93        1.976666e-01
   94        2.576446e+00
   95       -5.688300e-01
   96        6.531781e-01
   97        8.152398e-01
   98        9.431732e-01
   99        4.767274e-01
  100        2.803937e-01
;
param outliervec:=
    1    1
    2    1
    3    1
    4    0
    5    1
    6    1
    7    1
    8    0
    9    0
   10    1
   11    0
   12    1
   13    1
   14    0
   15    1
   16    1
   17    1
   18    0
   19    1
   20    1
   21    1
   22    0
   23    1
   24    1
   25    1
   26    1
   27    0
   28    0
   29    0
   30    1
   31    1
   32    1
   33    0
   34    1
   35    1
   36    1
   37    1
   38    0
   39    0
   40    1
   41    1
   42    0
   43    1
   44    1
   45    1
   46    1
   47    0
   48    1
   49    1
   50    1
   51    1
   52    1
   53    1
   54    1
   55    0
   56    1
   57    1
   58    1
   59    0
   60    1
   61    1
   62    1
   63    0
   64    0
   65    1
   66    1
   67    1
   68    1
   69    1
   70    1
   71    1
   72    0
   73    0
   74    0
   75    1
   76    1
   77    1
   78    1
   79    1
   80    1
   81    1
   82    1
   83    1
   84    1
   85    1
   86    1
   87    1
   88    1
   89    0
   90    1
   91    1
   92    1
   93    1
   94    0
   95    1
   96    1
   97    1
   98    1
   99    1
  100    1
;